(declare-fun weight_1_1_2 () Real)
(assert (forall ((input_1 Real) (input_2 Real))
  (let ((a!1 (ite (>= (+ (* input_1 (/ 6119044423103333.0 10000000000000000.0))
                         (* input_2 weight_1_1_2)
                         (/ 4678647518157959.0 10000000000000000.0))
                      0.0)
                  (+ (* input_1 (/ 6119044423103333.0 10000000000000000.0))
                     (* input_2 weight_1_1_2)
                     (/ 4678647518157959.0 10000000000000000.0))
                  0.0))
        (a!2 (ite (>= (+ (* input_1 (/ 1810682713985443.0 2500000000000000.0))
                         (* input_2
                            (- (/ 2702817916870117.0 5000000000000000.0)))
                         (/ 3324844539165497.0 10000000000000000.0))
                      0.0)
                  (+ (* input_1 (/ 1810682713985443.0 2500000000000000.0))
                     (* input_2 (- (/ 2702817916870117.0 5000000000000000.0)))
                     (/ 3324844539165497.0 10000000000000000.0))
                  0.0))
        (a!3 (ite (>= (+ (* input_1
                            (- (/ 756735622882843.0 2000000000000000.0)))
                         (* input_2 (/ 6610729098320007.0 10000000000000000.0))
                         (/ 895128607749939.0 1000000000000000.0))
                      0.0)
                  (+ (* input_1 (- (/ 756735622882843.0 2000000000000000.0)))
                     (* input_2 (/ 6610729098320007.0 10000000000000000.0))
                     (/ 895128607749939.0 1000000000000000.0))
                  0.0))
        (a!4 (ite (>= (+ (* input_1
                            (- (/ 3566634953022003.0 5000000000000000.0)))
                         (* input_2 (- (/ 66858921200037.0 78125000000000.0)))
                         (/ 49231022596359253.0 100000000000000000.0))
                      0.0)
                  (+ (* input_1 (- (/ 3566634953022003.0 5000000000000000.0)))
                     (* input_2 (- (/ 66858921200037.0 78125000000000.0)))
                     (/ 49231022596359253.0 100000000000000000.0))
                  0.0)))
  (let ((a!5 (+ (* a!1 (/ 6938807964324951.0 10000000000000000.0))
                (* a!2 (- (/ 1154119849205017.0 2000000000000000.0)))
                (* a!3 (- (/ 482571542263031.0 2000000000000000.0)))
                (* a!4 (/ 2846791036427021.0 25000000000000000.0))
                (/ 15994594991207123.0 50000000000000000.0)))
        (a!6 (+ (* a!1 (- (/ 7026025652885437.0 20000000000000000.0)))
                (* a!2 (/ 873803049325943.0 2500000000000000.0))
                (* a!3 (/ 1523522138595581.0 2000000000000000.0))
                (* a!4 (- (/ 1562498789280653.0 3125000000000000.0)))
                (/ 3052498959004879.0 12500000000000000.0))))
  (let ((a!7 (ite (=> (and (= input_1 (/ 876437.0 100000.0))
                           (= input_2 (/ 111021.0 10000.0)))
                      (> a!5 a!6))
                  1
                  0))
        (a!8 (ite (=> (and (= input_1 (/ 145601.0 20000.0))
                           (= input_2 (- (/ 61613.0 5000.0))))
                      (> a!6 a!5))
                  1
                  0))
        (a!9 (ite (=> (and (= input_1 (/ 101443.0 10000.0))
                           (= input_2 (/ 146297.0 10000.0)))
                      (> a!5 a!6))
                  1
                  0))
        (a!10 (ite (=> (and (= input_1 (/ 603533.0 100000.0))
                            (= input_2 (- (/ 40989.0 5000.0))))
                       (> a!6 a!5))
                   1
                   0))
        (a!11 (ite (=> (and (= input_1 (- (/ 276497.0 100000.0)))
                            (= input_2 (/ 23988.0 3125.0)))
                       (> a!6 a!5))
                   1
                   0))
        (a!12 (ite (=> (and (= input_1 (/ 55421.0 5000.0))
                            (= input_2 (/ 246481.0 25000.0)))
                       (> a!5 a!6))
                   1
                   0))
        (a!13 (ite (=> (and (= input_1 (- (/ 72459.0 5000.0)))
                            (= input_2 (- (/ 414437.0 50000.0))))
                       (> a!5 a!6))
                   1
                   0))
        (a!14 (ite (=> (and (= input_1 (/ 134067.0 10000.0))
                            (= input_2 (/ 24754.0 3125.0)))
                       (> a!5 a!6))
                   1
                   0))
        (a!15 (ite (=> (and (= input_1 (/ 734843.0 100000.0))
                            (= input_2 (/ 994109.0 100000.0)))
                       (> a!5 a!6))
                   1
                   0))
        (a!16 (ite (=> (and (= input_1 (/ 861317.0 100000.0))
                            (= input_2 (/ 272943.0 50000.0)))
                       (> a!5 a!6))
                   1
                   0))
        (a!17 (ite (=> (and (= input_1 (/ 5273.0 500.0))
                            (= input_2 (- (/ 646003.0 100000.0))))
                       (> a!6 a!5))
                   1
                   0))
        (a!18 (ite (=> (and (= input_1 (/ 127843.0 10000.0))
                            (= input_2 (- (/ 98619.0 12500.0))))
                       (> a!6 a!5))
                   1
                   0))
        (a!19 (ite (=> (and (= input_1 (- (/ 883487.0 100000.0)))
                            (= input_2 (- (/ 103729.0 10000.0))))
                       (> a!5 a!6))
                   1
                   0))
        (a!20 (ite (=> (and (= input_1 (- (/ 16509.0 1000.0)))
                            (= input_2 (- (/ 165831.0 10000.0))))
                       (> a!5 a!6))
                   1
                   0))
        (a!21 (ite (=> (and (= input_1 (/ 101819.0 12500.0))
                            (= input_2 (- (/ 185501.0 10000.0))))
                       (> a!6 a!5))
                   1
                   0))
        (a!22 (ite (=> (and (= input_1 (/ 183547.0 25000.0))
                            (= input_2 (- (/ 29191.0 2500.0))))
                       (> a!6 a!5))
                   1
                   0))
        (a!23 (ite (=> (and (= input_1 (- (/ 892157.0 100000.0)))
                            (= input_2 (- (/ 158651.0 10000.0))))
                       (> a!5 a!6))
                   1
                   0))
        (a!24 (ite (=> (and (= input_1 (/ 19339.0 6250.0))
                            (= input_2 (/ 163413.0 20000.0)))
                       (> a!5 a!6))
                   1
                   0))
        (a!25 (ite (=> (and (= input_1 (/ 65563.0 5000.0))
                            (= input_2 (/ 3639.0 1250.0)))
                       (> a!5 a!6))
                   1
                   0))
        (a!26 (ite (=> (and (= input_1 (/ 23571.0 2000.0))
                            (= input_2 (/ 115891.0 10000.0)))
                       (> a!5 a!6))
                   1
                   0))
        (a!27 (ite (=> (and (= input_1 (- (/ 158487.0 10000.0)))
                            (= input_2 (- (/ 159279.0 10000.0))))
                       (> a!5 a!6))
                   1
                   0))
        (a!28 (ite (=> (and (= input_1 (- (/ 150633.0 20000.0)))
                            (= input_2 (- (/ 139569.0 10000.0))))
                       (> a!5 a!6))
                   1
                   0))
        (a!29 (ite (=> (and (= input_1 (/ 29227.0 3125.0))
                            (= input_2 (- (/ 25079.0 2000.0))))
                       (> a!6 a!5))
                   1
                   0))
        (a!30 (ite (=> (and (= input_1 (- (/ 413303.0 50000.0)))
                            (= input_2 (- (/ 29529.0 2500.0))))
                       (> a!5 a!6))
                   1
                   0))
        (a!31 (ite (=> (and (= input_1 (- (/ 121287.0 10000.0)))
                            (= input_2 (/ 54963.0 5000.0)))
                       (> a!6 a!5))
                   1
                   0))
        (a!32 (ite (=> (and (= input_1 (/ 179663.0 25000.0))
                            (= input_2 (/ 50609.0 5000.0)))
                       (> a!5 a!6))
                   1
                   0))
        (a!33 (ite (=> (and (= input_1 (/ 154167.0 10000.0))
                            (= input_2 (- (/ 149657.0 10000.0))))
                       (> a!6 a!5))
                   1
                   0))
        (a!34 (ite (=> (and (= input_1 (/ 491723.0 100000.0))
                            (= input_2 (- (/ 1969.0 125.0))))
                       (> a!6 a!5))
                   1
                   0))
        (a!35 (ite (=> (and (= input_1 (- (/ 198823.0 20000.0)))
                            (= input_2 (/ 988729.0 100000.0)))
                       (> a!6 a!5))
                   1
                   0))
        (a!36 (ite (=> (and (= input_1 (- (/ 689367.0 100000.0)))
                            (= input_2 (- (/ 26803.0 2000.0))))
                       (> a!5 a!6))
                   1
                   0))
        (a!37 (ite (=> (and (= input_1 (- (/ 36273.0 2500.0)))
                            (= input_2 (/ 134119.0 10000.0)))
                       (> a!6 a!5))
                   1
                   0))
        (a!38 (ite (=> (and (= input_1 (- (/ 87871.0 20000.0)))
                            (= input_2 (- (/ 22573.0 2000.0))))
                       (> a!5 a!6))
                   1
                   0))
        (a!39 (ite (=> (and (= input_1 (/ 9533.0 625.0))
                            (= input_2 (- (/ 120673.0 10000.0))))
                       (> a!6 a!5))
                   1
                   0))
        (a!40 (ite (=> (and (= input_1 (- (/ 739253.0 100000.0)))
                            (= input_2 (/ 105259.0 10000.0)))
                       (> a!6 a!5))
                   1
                   0))
        (a!41 (ite (=> (and (= input_1 (- (/ 5073.0 500.0)))
                            (= input_2 (/ 13081.0 1000.0)))
                       (> a!6 a!5))
                   1
                   0))
        (a!42 (ite (=> (and (= input_1 (/ 10891.0 1000.0))
                            (= input_2 (/ 93239.0 12500.0)))
                       (> a!5 a!6))
                   1
                   0))
        (a!43 (ite (=> (and (= input_1 (/ 80153.0 5000.0))
                            (= input_2 (/ 219189.0 25000.0)))
                       (> a!5 a!6))
                   1
                   0))
        (a!44 (ite (=> (and (= input_1 (- (/ 883119.0 100000.0)))
                            (= input_2 (- (/ 928043.0 100000.0))))
                       (> a!5 a!6))
                   1
                   0))
        (a!45 (ite (=> (and (= input_1 (- (/ 58701.0 5000.0)))
                            (= input_2 (/ 132663.0 10000.0)))
                       (> a!6 a!5))
                   1
                   0))
        (a!46 (ite (=> (and (= input_1 (/ 3273.0 250.0))
                            (= input_2 (- (/ 8158.0 625.0))))
                       (> a!6 a!5))
                   1
                   0))
        (a!47 (ite (=> (and (= input_1 (- (/ 7353.0 1000.0)))
                            (= input_2 (/ 150017.0 10000.0)))
                       (> a!6 a!5))
                   1
                   0))
        (a!48 (ite (=> (and (= input_1 (- (/ 45283.0 2500.0)))
                            (= input_2 (- (/ 137091.0 20000.0))))
                       (> a!5 a!6))
                   1
                   0))
        (a!49 (ite (=> (and (= input_1 (/ 72993.0 5000.0))
                            (= input_2 (- (/ 51393.0 5000.0))))
                       (> a!6 a!5))
                   1
                   0))
        (a!50 (ite (=> (and (= input_1 (/ 5909.0 500.0))
                            (= input_2 (/ 927623.0 100000.0)))
                       (> a!5 a!6))
                   1
                   0))
        (a!51 (ite (=> (and (= input_1 (/ 241.0 20.0))
                            (= input_2 (- (/ 75213.0 5000.0))))
                       (> a!6 a!5))
                   1
                   0))
        (a!52 (ite (=> (and (= input_1 (/ 848711.0 100000.0))
                            (= input_2 (- (/ 14719.0 1000.0))))
                       (> a!6 a!5))
                   1
                   0))
        (a!53 (ite (=> (and (= input_1 (- (/ 979189.0 100000.0)))
                            (= input_2 (- (/ 987723.0 100000.0))))
                       (> a!5 a!6))
                   1
                   0))
        (a!54 (ite (=> (and (= input_1 (/ 36321.0 2000.0))
                            (= input_2 (/ 668923.0 100000.0)))
                       (> a!5 a!6))
                   1
                   0))
        (a!55 (ite (=> (and (= input_1 (/ 488833.0 50000.0))
                            (= input_2 (/ 157421.0 10000.0)))
                       (> a!5 a!6))
                   1
                   0))
        (a!56 (ite (=> (and (= input_1 (/ 599029.0 100000.0))
                            (= input_2 (- (/ 832383.0 100000.0))))
                       (> a!6 a!5))
                   1
                   0)))
    (and (=> (and (>= input_1 1.0)
                  (<= input_1 19.0)
                  (>= input_2 1.0)
                  (<= input_2 19.0))
             (and (> a!5 a!6)))
         (>= (+ a!7
                a!8
                a!9
                a!10
                a!11
                a!12
                a!13
                a!14
                a!15
                a!16
                a!17
                a!18
                a!19
                a!20
                a!21
                a!22
                a!23
                a!24
                a!25
                a!26
                a!27
                a!28
                a!29
                a!30
                a!31
                a!32
                a!33
                a!34
                a!35
                a!36
                a!37
                a!38
                a!39
                a!40
                a!41
                a!42
                a!43
                a!44
                a!45
                a!46
                a!47
                a!48
                a!49
                a!50
                a!51
                a!52
                a!53
                a!54
                a!55
                a!56)
             50)))))))
(check-sat)
(get-model)
